units real
atom_style full
dimension 3
boundary p p f

bond_style      hybrid harmonic
angle_style     hybrid harmonic
dihedral_style  hybrid charmm multi/harmonic
special_bonds   lj 0.0 0.0 0.5 coul 0.0 0.0 0.83333333

#pair_style      lj/cut/coul/long 15.0
pair_style      lj/cut 15.0
#pair_modify     tail yes
pair_modify     mix arithmetic
#kspace_style    pppm 1e-8
#kspace_modify   slab 3.0
timestep        1.0

read_data       packed_no_charges.lmps

dump            1 all custom 100000 data.lmps id mol type q x y z
thermo_style    custom ebond eangle edihed eimp epair evdwl ecoul elong etail pe

min_style       sd
minimize        1.0e-4 1.0e-6 100 1000

fix             walllo all wall/lj126 zlo EDGE 1.0 1.0 10.0
fix             wallhi all wall/lj126 zhi EDGE 1.0 1.0 10.0
fix             1 all nvt temp 300 300 100
velocity        all create 300 1234
run             100000

write_data      pre_polym.lmps