# System
units            real
atom_style       full
dimension        3
newton           on
boundary         p p p

# Styles
bond_style      harmonic
angle_style     harmonic
#dihedral_style  hybrid charmm multi/harmonic
special_bonds   lj 0.0 0.0 0.5 coul 0.0 0.0 0.83333333
pair_style      lj/cut/coul/long 10.0 12.0
pair_modify     tail yes
pair_modify     mix arithmetic
kspace_style    pppm 1e-8

read_data       tip3p.lmps

pair_coeff 2 2 0.15027 3.15066 # OW
pair_coeff 1 1 0.0000000 0.0000000 # HW

bond_coeff  1 4.50000000e+02 9.57200000e-01 # OW-HW
angle_coeff 1 5.50000000e+01 1.04520000e+02 # HW-OW-HW

neigh_modify     delay 0 every 1 check yes
thermo_style     custom step vol temp press etotal pe ke evdwl ecoul ebond eangle edihed eimp
thermo           1

# Minimization
min_style        sd
minimize         0.0 1.0e-2 200 200
write_data       min.lmps

min_style        cg
min_modify       line quadratic
minimize         0.0 1.0e-2 200 200
write_data       min.lmps

# Initial MD Equilibration
bond_coeff  1 0 9.57200000e-01 # OW-HW
angle_coeff 1 0 1.04520000e+02 # HW-OW-HW

timestep         0.1
fix              1 all nve
fix              2 all langevin 300.0 300.0 1.0 48279
fix              3 all rattle 1.0e-6 200 0 b 1 a 1
run              500

unfix 1
unfix 2
unfix 3

timestep         2.0
fix              1 all nve
fix              2 all langevin 300 300 10.0 48279
fix              3 all rattle 1.0e-6 200 0 b 1 a 1
run              500
write_data       tip3p_equil.lmps

# Full MD Steps
thermo_style     custom step vol temp press etotal pe ke evdwl ecoul ebond eangle edihed eimp
thermo           100

timestep         2.0
fix              1 all nve
fix              2 all langevin 300 300 10.0 48279
fix              3 all rattle 1.0e-6 200 0 b 1 a 1
run              100000
write_data       tip3p_equil.lmps